&control
  calculation = 'scf'
  prefix      = 'alas'
  outdir      = './out'
  pseudo_dir  = '../../../../pseudos'
  verbosity   = 'high'
/
&system
  ibrav       = 2
  celldm(1)   = 10.696
  nat         = 2
  ntyp        = 2
  ecutwfc     = 60.0
  ecutrho     = 240.0
  occupations = 'fixed'
  nbnd        = 16
/
&electrons
  conv_thr    = 1.0d-12
  mixing_beta = 0.7
/
ATOMIC_SPECIES
Al  26.982  Al_ONCV_PBE-1.2.upf
As  74.922  As_ONCV_PBE-1.2.upf
ATOMIC_POSITIONS crystal
Al  0.00  0.00  0.00
As  0.25  0.25  0.25
K_POINTS automatic
8 8 8 0 0 0
